c FILE: queen5_5.col
c Translated from Stanford GraphBase File: queen5_5.sgb
c Stanford GraphBase ID: gunion(board(5,5,0,0,-1,0,0),board(5,5,0,0,-2,0,0),0,0)
p edge 25 320
e 2 1
e 3 1
e 3 2
e 4 1
e 4 2
e 4 3
e 5 1
e 5 2
e 5 3
e 5 4
e 6 1
e 6 2
e 7 1
e 7 2
e 7 3
e 7 6
e 8 2
e 8 3
e 8 4
e 8 6
e 8 7
e 9 3
e 9 4
e 9 5
e 9 6
e 9 7
e 9 8
e 10 4
e 10 5
e 10 6
e 10 7
e 10 8
e 10 9
e 11 1
e 11 3
e 11 6
e 11 7
e 12 2
e 12 4
e 12 6
e 12 7
e 12 8
e 12 11
e 13 1
e 13 3
e 13 5
e 13 7
e 13 8
e 13 9
e 13 11
e 13 12
e 14 2
e 14 4
e 14 8
e 14 9
e 14 10
e 14 11
e 14 12
e 14 13
e 15 3
e 15 5
e 15 9
e 15 10
e 15 11
e 15 12
e 15 13
e 15 14
e 16 1
e 16 4
e 16 6
e 16 8
e 16 11
e 16 12
e 17 2
e 17 5
e 17 7
e 17 9
e 17 11
e 17 12
e 17 13
e 17 16
e 18 3
e 18 6
e 18 8
e 18 10
e 18 12
e 18 13
e 18 14
e 18 16
e 18 17
e 19 1
e 19 4
e 19 7
e 19 9
e 19 13
e 19 14
e 19 15
e 19 16
e 19 17
e 19 18
e 20 2
e 20 5
e 20 8
e 20 10
e 20 14
e 20 15
e 20 16
e 20 17
e 20 18
e 20 19
e 21 1
e 21 5
e 21 6
e 21 9
e 21 11
e 21 13
e 21 16
e 21 17
e 22 2
e 22 7
e 22 10
e 22 12
e 22 14
e 22 16
e 22 17
e 22 18
e 22 21
e 23 3
e 23 8
e 23 11
e 23 13
e 23 15
e 23 17
e 23 18
e 23 19
e 23 21
e 23 22
e 24 4
e 24 6
e 24 9
e 24 12
e 24 14
e 24 18
e 24 19
e 24 20
e 24 21
e 24 22
e 24 23
e 25 1
e 25 5
e 25 7
e 25 10
e 25 13
e 25 15
e 25 19
e 25 20
e 25 21
e 25 22
e 25 23
e 25 24
